/*********************************************
 * OPL 12.6.0.0 Data
 * Author: Adrian Rodriguez Bazaga, Pau Rodriguez Esmerats
 * Creation Date: 06/12/2017 at 23:03:01
 *********************************************/

nNurses=209;
maxConsec=2;
maxPresence=7;
maxHours=5;
minHours=1;
hours=24;
demand= [25 31 55 46 31 55 46 33 43 23 3 6 4 6 4 4 2 4 1 0 36 61 25 50  ];
